nodes = 798;
edges = 2012;
starts = [1, 1, 3, 3, 5, 5, 6, 7, 8, 9, 10, 11, 11, 12, 13, 13, 15, 15, 16, 17, 17, 19, 19, 20, 21, 21, 22, 24, 25, 25, 26, 27, 27, 28, 29, 29, 30, 31, 33, 34, 35, 36, 37, 38, 39, 40, 41, 41, 42, 43, 43, 44, 45, 45, 46, 47, 48, 49, 49, 50, 51, 51, 53, 54, 55, 55, 56, 57, 57, 58, 59, 59, 60, 61, 61, 62, 63, 63, 64, 65, 65, 66, 67, 68, 69, 69, 71, 71, 72, 73, 73, 75, 75, 76, 77, 77, 78, 79, 80, 80, 81, 82, 82, 83, 84, 84, 85, 86, 86, 88, 88, 89, 90, 90, 91, 92, 92, 93, 94, 94, 95, 96, 97, 98, 98, 99, 100, 100, 101, 102, 102, 103, 104, 105, 106, 106, 107, 108, 108, 110, 110, 111, 112, 113, 114, 114, 115, 116, 116, 118, 118, 120, 121, 121, 122, 123, 123, 124, 125, 127, 127, 128, 129, 130, 131, 131, 132, 133, 133, 134, 135, 135, 137, 137, 138, 139, 140, 141, 141, 143, 143, 144, 145, 145, 146, 147, 147, 148, 149, 149, 150, 151, 151, 152, 153, 155, 155, 156, 157, 157, 158, 159, 160, 160, 161, 162, 163, 164, 164, 165, 166, 167, 168, 168, 169, 170, 170, 171, 172, 173, 174, 175, 176, 176, 178, 178, 179, 180, 180, 181, 182, 182, 183, 184, 184, 185, 186, 186, 187, 188, 189, 190, 190, 191, 192, 193, 194, 195, 196, 196, 198, 200, 201, 201, 203, 203, 204, 205, 205, 206, 207, 207, 208, 209, 210, 211, 211, 212, 213, 214, 215, 215, 216, 218, 219, 219, 220, 221, 221, 223, 223, 224, 225, 225, 227, 227, 228, 229, 229, 230, 231, 231, 232, 233, 233, 234, 235, 237, 237, 238, 239, 240, 240, 241, 242, 242, 244, 245, 246, 247, 248, 249, 250, 250, 251, 252, 252, 253, 254, 254, 255, 256, 257, 258, 259, 260, 260, 261, 262, 262, 263, 264, 265, 266, 267, 268, 268, 269, 270, 271, 272, 273, 274, 274, 275, 276, 276, 277, 278, 278, 280, 281, 281, 282, 283, 283, 284, 285, 285, 286, 287, 287, 288, 289, 290, 291, 291, 292, 293, 293, 295, 295, 296, 297, 297, 298, 299, 299, 300, 301, 301, 303, 303, 304, 305, 306, 307, 307, 308, 309, 310, 311, 312, 313, 313, 314, 315, 315, 316, 318, 319, 320, 320, 321, 322, 322, 323, 324, 325, 326, 327, 328, 328, 329, 330, 330, 331, 332, 332, 333, 334, 334, 335, 336, 336, 337, 338, 338, 339, 340, 340, 341, 342, 342, 343, 344, 344, 346, 347, 348, 349, 350, 350, 351, 352, 352, 353, 354, 355, 356, 356, 357, 358, 358, 360, 361, 361, 362, 363, 363, 364, 365, 365, 366, 367, 367, 368, 369, 369, 371, 371, 372, 373, 374, 375, 375, 376, 377, 377, 378, 379, 379, 380, 381, 382, 383, 384, 385, 385, 387, 387, 388, 389, 389, 390, 391, 391, 392, 393, 393, 394, 395, 395, 396, 397, 397, 398, 400, 400, 401, 402, 402, 403, 404, 405, 406, 407, 408, 408, 409, 410, 411, 412, 413, 414, 414, 415, 416, 416, 417, 418, 418, 419, 420, 420, 421, 422, 422, 424, 424, 425, 426, 426, 427, 428, 428, 429, 430, 431, 432, 433, 434, 434, 435, 436, 437, 438, 438, 441, 442, 443, 443, 444, 445, 446, 447, 447, 448, 449, 451, 452, 453, 453, 454, 455, 455, 456, 457, 457, 458, 459, 459, 460, 461, 461, 462, 463, 463, 464, 465, 465, 466, 467, 467, 468, 469, 469, 471, 472, 473, 473, 474, 475, 475, 476, 477, 477, 478, 479, 480, 481, 482, 482, 483, 484, 484, 485, 486, 487, 488, 488, 490, 490, 491, 492, 492, 493, 494, 494, 495, 496, 496, 497, 498, 499, 500, 501, 502, 502, 503, 504, 504, 505, 506, 507, 508, 508, 509, 510, 510, 511, 512, 513, 514, 514, 515, 516, 516, 517, 518, 518, 520, 521, 521, 522, 523, 524, 525, 525, 526, 527, 527, 528, 529, 529, 530, 533, 533, 534, 535, 535, 536, 537, 537, 538, 539, 539, 541, 541, 543, 544, 545, 545, 546, 547, 547, 548, 549, 549, 550, 551, 551, 552, 553, 554, 555, 556, 557, 558, 559, 560, 560, 561, 562, 564, 564, 565, 566, 566, 567, 568, 568, 569, 570, 571, 572, 572, 573, 574, 574, 575, 576, 576, 577, 578, 578, 579, 580, 580, 581, 583, 584, 584, 585, 586, 586, 587, 588, 588, 589, 590, 592, 592, 593, 594, 595, 596, 596, 597, 598, 598, 601, 601, 602, 603, 603, 604, 605, 605, 606, 607, 608, 609, 609, 610, 611, 611, 612, 613, 613, 615, 615, 616, 617, 617, 618, 619, 619, 620, 621, 621, 622, 623, 623, 625, 626, 627, 627, 628, 629, 630, 631, 631, 632, 633, 633, 634, 635, 636, 637, 637, 638, 639, 640, 640, 641, 643, 644, 644, 645, 646, 647, 648, 648, 649, 650, 650, 651, 652, 652, 653, 654, 654, 655, 656, 657, 658, 658, 660, 660, 661, 662, 662, 663, 664, 664, 666, 666, 667, 668, 668, 669, 670, 671, 672, 672, 673, 674, 674, 675, 676, 676, 677, 678, 678, 681, 681, 682, 683, 683, 684, 685, 685, 686, 687, 688, 689, 689, 690, 691, 691, 692, 693, 693, 694, 695, 695, 696, 697, 698, 699, 699, 700, 701, 701, 703, 703, 704, 705, 705, 706, 707, 707, 708, 709, 709, 710, 711, 711, 713, 713, 714, 715, 715, 716, 717, 717, 718, 719, 720, 721, 722, 722, 723, 724, 724, 725, 726, 726, 728, 728, 729, 730, 731, 732, 732, 734, 735, 736, 736, 737, 738, 738, 739, 740, 740, 741, 742, 742, 743, 744, 744, 746, 746, 747, 748, 748, 749, 750, 750, 751, 752, 752, 754, 754, 755, 756, 756, 757, 758, 758, 760, 761, 762, 764, 765, 767, 768, 769, 770, 771, 772, 773, 774, 775, 776, 777, 778, 779, 781, 782, 783, 784, 785, 786, 787, 788, 789, 790, 791, 792, 793, 794, 795, 796, 797, 2, 40, 4, 42, 6, 44, 7, 8, 9, 48, 11, 12, 50, 13, 14, 52, 16, 54, 17, 18, 56, 20, 58, 21, 22, 60, 23, 25, 26, 64, 27, 28, 66, 29, 30, 68, 31, 32, 34, 35, 36, 37, 76, 39, 78, 41, 42, 81, 43, 44, 83, 45, 46, 85, 47, 48, 49, 50, 89, 51, 52, 91, 54, 55, 56, 95, 57, 58, 97, 59, 60, 99, 61, 62, 101, 63, 64, 103, 65, 66, 105, 67, 68, 69, 70, 109, 72, 111, 73, 74, 113, 76, 115, 77, 78, 117, 79, 119, 81, 120, 82, 83, 122, 84, 85, 124, 86, 87, 126, 89, 128, 90, 91, 130, 92, 93, 132, 94, 95, 134, 96, 136, 98, 99, 138, 100, 101, 140, 102, 103, 142, 104, 144, 106, 107, 146, 108, 109, 148, 111, 150, 112, 152, 114, 115, 154, 116, 117, 156, 119, 158, 121, 122, 161, 123, 124, 163, 125, 126, 128, 167, 129, 130, 131, 132, 171, 133, 134, 173, 135, 136, 175, 138, 177, 139, 179, 141, 142, 181, 144, 183, 145, 146, 185, 147, 148, 187, 149, 150, 189, 151, 152, 191, 153, 193, 156, 195, 157, 158, 197, 159, 199, 161, 200, 162, 202, 164, 165, 204, 166, 167, 168, 169, 208, 170, 171, 210, 172, 212, 174, 175, 176, 177, 216, 179, 218, 180, 181, 220, 182, 183, 222, 184, 185, 224, 186, 187, 226, 188, 228, 190, 191, 230, 192, 193, 194, 234, 196, 197, 236, 238, 201, 202, 241, 204, 243, 205, 206, 245, 207, 208, 247, 209, 249, 211, 212, 251, 213, 214, 215, 216, 255, 217, 219, 220, 259, 221, 222, 261, 224, 263, 225, 226, 265, 228, 267, 229, 230, 269, 231, 232, 271, 233, 234, 273, 235, 236, 238, 277, 239, 279, 241, 280, 242, 243, 282, 284, 246, 247, 248, 249, 250, 251, 290, 252, 253, 292, 254, 255, 294, 256, 257, 258, 298, 260, 261, 300, 262, 263, 302, 264, 304, 266, 306, 268, 269, 308, 270, 310, 272, 312, 274, 275, 314, 276, 277, 316, 278, 279, 318, 281, 282, 321, 283, 284, 323, 285, 286, 325, 287, 288, 327, 289, 290, 291, 292, 331, 293, 294, 333, 296, 335, 297, 298, 337, 299, 300, 339, 301, 302, 341, 304, 343, 305, 345, 307, 308, 347, 309, 349, 311, 351, 313, 314, 353, 315, 316, 355, 317, 319, 359, 321, 360, 322, 323, 362, 324, 364, 326, 327, 328, 329, 368, 330, 331, 370, 332, 333, 372, 334, 335, 374, 336, 337, 376, 338, 339, 378, 340, 341, 380, 342, 343, 382, 344, 345, 384, 386, 348, 388, 350, 351, 390, 352, 353, 392, 354, 394, 356, 357, 396, 358, 359, 398, 361, 362, 401, 363, 364, 403, 365, 366, 405, 367, 368, 407, 369, 370, 409, 372, 411, 373, 413, 375, 376, 415, 377, 378, 417, 379, 380, 419, 381, 382, 383, 423, 385, 386, 425, 388, 427, 389, 390, 429, 391, 392, 431, 393, 394, 433, 395, 396, 435, 397, 398, 437, 399, 401, 440, 402, 403, 442, 404, 405, 406, 407, 408, 409, 448, 410, 450, 412, 452, 414, 415, 454, 416, 417, 456, 418, 419, 458, 420, 421, 460, 422, 423, 462, 425, 464, 426, 427, 466, 428, 429, 468, 430, 470, 432, 433, 434, 435, 474, 436, 476, 438, 439, 478, 442, 443, 444, 483, 445, 485, 447, 448, 487, 449, 489, 491, 453, 454, 493, 455, 456, 495, 457, 458, 497, 459, 460, 499, 461, 462, 501, 463, 464, 503, 465, 466, 505, 467, 468, 507, 469, 470, 509, 511, 473, 474, 513, 475, 476, 515, 477, 478, 517, 479, 519, 481, 482, 483, 522, 484, 485, 524, 486, 487, 488, 489, 528, 491, 530, 492, 493, 532, 494, 495, 534, 496, 497, 536, 498, 499, 500, 501, 502, 503, 542, 504, 505, 544, 506, 507, 508, 509, 548, 510, 511, 550, 512, 513, 514, 515, 554, 516, 517, 556, 518, 519, 558, 521, 522, 561, 523, 563, 525, 526, 565, 527, 528, 567, 529, 530, 569, 531, 534, 573, 535, 536, 575, 537, 538, 577, 539, 540, 579, 542, 581, 544, 545, 546, 585, 547, 548, 587, 549, 550, 589, 551, 552, 591, 553, 593, 555, 556, 557, 597, 559, 599, 561, 600, 562, 563, 565, 604, 566, 567, 606, 568, 569, 608, 570, 571, 572, 573, 612, 574, 575, 614, 576, 577, 616, 578, 579, 618, 580, 581, 620, 582, 584, 585, 624, 586, 587, 626, 588, 589, 628, 590, 591, 593, 632, 594, 634, 596, 597, 636, 598, 599, 638, 602, 641, 603, 604, 643, 605, 606, 645, 607, 608, 609, 610, 649, 611, 612, 651, 613, 614, 653, 616, 655, 617, 618, 657, 619, 620, 659, 621, 622, 661, 623, 624, 663, 665, 627, 628, 667, 629, 669, 631, 632, 671, 633, 634, 673, 635, 636, 637, 638, 677, 639, 679, 641, 680, 642, 644, 645, 684, 646, 647, 648, 649, 688, 650, 651, 690, 652, 653, 692, 654, 655, 694, 656, 657, 658, 659, 698, 661, 700, 662, 663, 702, 664, 665, 704, 667, 706, 668, 669, 708, 670, 671, 672, 673, 712, 674, 675, 714, 676, 677, 716, 678, 679, 718, 682, 721, 683, 684, 723, 685, 686, 725, 687, 727, 689, 690, 729, 691, 692, 731, 693, 694, 733, 695, 696, 735, 697, 698, 699, 700, 739, 701, 702, 741, 704, 743, 705, 706, 745, 707, 708, 747, 709, 710, 749, 711, 712, 751, 714, 753, 715, 716, 755, 717, 718, 757, 719, 759, 721, 722, 723, 762, 724, 725, 764, 726, 727, 766, 729, 768, 730, 770, 732, 733, 772, 735, 736, 737, 776, 738, 739, 778, 740, 741, 780, 742, 743, 782, 744, 745, 784, 747, 786, 748, 749, 788, 750, 751, 790, 752, 753, 792, 755, 794, 756, 757, 796, 758, 759, 798, 761, 762, 763, 765, 766, 768, 769, 770, 771, 772, 773, 774, 775, 776, 777, 778, 779, 780, 782, 783, 784, 785, 786, 787, 788, 789, 790, 791, 792, 793, 794, 795, 796, 797, 798];
ends = [2, 40, 4, 42, 6, 44, 7, 8, 9, 48, 11, 12, 50, 13, 14, 52, 16, 54, 17, 18, 56, 20, 58, 21, 22, 60, 23, 25, 26, 64, 27, 28, 66, 29, 30, 68, 31, 32, 34, 35, 36, 37, 76, 39, 78, 41, 42, 81, 43, 44, 83, 45, 46, 85, 47, 48, 49, 50, 89, 51, 52, 91, 54, 55, 56, 95, 57, 58, 97, 59, 60, 99, 61, 62, 101, 63, 64, 103, 65, 66, 105, 67, 68, 69, 70, 109, 72, 111, 73, 74, 113, 76, 115, 77, 78, 117, 79, 119, 81, 120, 82, 83, 122, 84, 85, 124, 86, 87, 126, 89, 128, 90, 91, 130, 92, 93, 132, 94, 95, 134, 96, 136, 98, 99, 138, 100, 101, 140, 102, 103, 142, 104, 144, 106, 107, 146, 108, 109, 148, 111, 150, 112, 152, 114, 115, 154, 116, 117, 156, 119, 158, 121, 122, 161, 123, 124, 163, 125, 126, 128, 167, 129, 130, 131, 132, 171, 133, 134, 173, 135, 136, 175, 138, 177, 139, 179, 141, 142, 181, 144, 183, 145, 146, 185, 147, 148, 187, 149, 150, 189, 151, 152, 191, 153, 193, 156, 195, 157, 158, 197, 159, 199, 161, 200, 162, 202, 164, 165, 204, 166, 167, 168, 169, 208, 170, 171, 210, 172, 212, 174, 175, 176, 177, 216, 179, 218, 180, 181, 220, 182, 183, 222, 184, 185, 224, 186, 187, 226, 188, 228, 190, 191, 230, 192, 193, 194, 234, 196, 197, 236, 238, 201, 202, 241, 204, 243, 205, 206, 245, 207, 208, 247, 209, 249, 211, 212, 251, 213, 214, 215, 216, 255, 217, 219, 220, 259, 221, 222, 261, 224, 263, 225, 226, 265, 228, 267, 229, 230, 269, 231, 232, 271, 233, 234, 273, 235, 236, 238, 277, 239, 279, 241, 280, 242, 243, 282, 284, 246, 247, 248, 249, 250, 251, 290, 252, 253, 292, 254, 255, 294, 256, 257, 258, 298, 260, 261, 300, 262, 263, 302, 264, 304, 266, 306, 268, 269, 308, 270, 310, 272, 312, 274, 275, 314, 276, 277, 316, 278, 279, 318, 281, 282, 321, 283, 284, 323, 285, 286, 325, 287, 288, 327, 289, 290, 291, 292, 331, 293, 294, 333, 296, 335, 297, 298, 337, 299, 300, 339, 301, 302, 341, 304, 343, 305, 345, 307, 308, 347, 309, 349, 311, 351, 313, 314, 353, 315, 316, 355, 317, 319, 359, 321, 360, 322, 323, 362, 324, 364, 326, 327, 328, 329, 368, 330, 331, 370, 332, 333, 372, 334, 335, 374, 336, 337, 376, 338, 339, 378, 340, 341, 380, 342, 343, 382, 344, 345, 384, 386, 348, 388, 350, 351, 390, 352, 353, 392, 354, 394, 356, 357, 396, 358, 359, 398, 361, 362, 401, 363, 364, 403, 365, 366, 405, 367, 368, 407, 369, 370, 409, 372, 411, 373, 413, 375, 376, 415, 377, 378, 417, 379, 380, 419, 381, 382, 383, 423, 385, 386, 425, 388, 427, 389, 390, 429, 391, 392, 431, 393, 394, 433, 395, 396, 435, 397, 398, 437, 399, 401, 440, 402, 403, 442, 404, 405, 406, 407, 408, 409, 448, 410, 450, 412, 452, 414, 415, 454, 416, 417, 456, 418, 419, 458, 420, 421, 460, 422, 423, 462, 425, 464, 426, 427, 466, 428, 429, 468, 430, 470, 432, 433, 434, 435, 474, 436, 476, 438, 439, 478, 442, 443, 444, 483, 445, 485, 447, 448, 487, 449, 489, 491, 453, 454, 493, 455, 456, 495, 457, 458, 497, 459, 460, 499, 461, 462, 501, 463, 464, 503, 465, 466, 505, 467, 468, 507, 469, 470, 509, 511, 473, 474, 513, 475, 476, 515, 477, 478, 517, 479, 519, 481, 482, 483, 522, 484, 485, 524, 486, 487, 488, 489, 528, 491, 530, 492, 493, 532, 494, 495, 534, 496, 497, 536, 498, 499, 500, 501, 502, 503, 542, 504, 505, 544, 506, 507, 508, 509, 548, 510, 511, 550, 512, 513, 514, 515, 554, 516, 517, 556, 518, 519, 558, 521, 522, 561, 523, 563, 525, 526, 565, 527, 528, 567, 529, 530, 569, 531, 534, 573, 535, 536, 575, 537, 538, 577, 539, 540, 579, 542, 581, 544, 545, 546, 585, 547, 548, 587, 549, 550, 589, 551, 552, 591, 553, 593, 555, 556, 557, 597, 559, 599, 561, 600, 562, 563, 565, 604, 566, 567, 606, 568, 569, 608, 570, 571, 572, 573, 612, 574, 575, 614, 576, 577, 616, 578, 579, 618, 580, 581, 620, 582, 584, 585, 624, 586, 587, 626, 588, 589, 628, 590, 591, 593, 632, 594, 634, 596, 597, 636, 598, 599, 638, 602, 641, 603, 604, 643, 605, 606, 645, 607, 608, 609, 610, 649, 611, 612, 651, 613, 614, 653, 616, 655, 617, 618, 657, 619, 620, 659, 621, 622, 661, 623, 624, 663, 665, 627, 628, 667, 629, 669, 631, 632, 671, 633, 634, 673, 635, 636, 637, 638, 677, 639, 679, 641, 680, 642, 644, 645, 684, 646, 647, 648, 649, 688, 650, 651, 690, 652, 653, 692, 654, 655, 694, 656, 657, 658, 659, 698, 661, 700, 662, 663, 702, 664, 665, 704, 667, 706, 668, 669, 708, 670, 671, 672, 673, 712, 674, 675, 714, 676, 677, 716, 678, 679, 718, 682, 721, 683, 684, 723, 685, 686, 725, 687, 727, 689, 690, 729, 691, 692, 731, 693, 694, 733, 695, 696, 735, 697, 698, 699, 700, 739, 701, 702, 741, 704, 743, 705, 706, 745, 707, 708, 747, 709, 710, 749, 711, 712, 751, 714, 753, 715, 716, 755, 717, 718, 757, 719, 759, 721, 722, 723, 762, 724, 725, 764, 726, 727, 766, 729, 768, 730, 770, 732, 733, 772, 735, 736, 737, 776, 738, 739, 778, 740, 741, 780, 742, 743, 782, 744, 745, 784, 747, 786, 748, 749, 788, 750, 751, 790, 752, 753, 792, 755, 794, 756, 757, 796, 758, 759, 798, 761, 762, 763, 765, 766, 768, 769, 770, 771, 772, 773, 774, 775, 776, 777, 778, 779, 780, 782, 783, 784, 785, 786, 787, 788, 789, 790, 791, 792, 793, 794, 795, 796, 797, 798, 1, 1, 3, 3, 5, 5, 6, 7, 8, 9, 10, 11, 11, 12, 13, 13, 15, 15, 16, 17, 17, 19, 19, 20, 21, 21, 22, 24, 25, 25, 26, 27, 27, 28, 29, 29, 30, 31, 33, 34, 35, 36, 37, 38, 39, 40, 41, 41, 42, 43, 43, 44, 45, 45, 46, 47, 48, 49, 49, 50, 51, 51, 53, 54, 55, 55, 56, 57, 57, 58, 59, 59, 60, 61, 61, 62, 63, 63, 64, 65, 65, 66, 67, 68, 69, 69, 71, 71, 72, 73, 73, 75, 75, 76, 77, 77, 78, 79, 80, 80, 81, 82, 82, 83, 84, 84, 85, 86, 86, 88, 88, 89, 90, 90, 91, 92, 92, 93, 94, 94, 95, 96, 97, 98, 98, 99, 100, 100, 101, 102, 102, 103, 104, 105, 106, 106, 107, 108, 108, 110, 110, 111, 112, 113, 114, 114, 115, 116, 116, 118, 118, 120, 121, 121, 122, 123, 123, 124, 125, 127, 127, 128, 129, 130, 131, 131, 132, 133, 133, 134, 135, 135, 137, 137, 138, 139, 140, 141, 141, 143, 143, 144, 145, 145, 146, 147, 147, 148, 149, 149, 150, 151, 151, 152, 153, 155, 155, 156, 157, 157, 158, 159, 160, 160, 161, 162, 163, 164, 164, 165, 166, 167, 168, 168, 169, 170, 170, 171, 172, 173, 174, 175, 176, 176, 178, 178, 179, 180, 180, 181, 182, 182, 183, 184, 184, 185, 186, 186, 187, 188, 189, 190, 190, 191, 192, 193, 194, 195, 196, 196, 198, 200, 201, 201, 203, 203, 204, 205, 205, 206, 207, 207, 208, 209, 210, 211, 211, 212, 213, 214, 215, 215, 216, 218, 219, 219, 220, 221, 221, 223, 223, 224, 225, 225, 227, 227, 228, 229, 229, 230, 231, 231, 232, 233, 233, 234, 235, 237, 237, 238, 239, 240, 240, 241, 242, 242, 244, 245, 246, 247, 248, 249, 250, 250, 251, 252, 252, 253, 254, 254, 255, 256, 257, 258, 259, 260, 260, 261, 262, 262, 263, 264, 265, 266, 267, 268, 268, 269, 270, 271, 272, 273, 274, 274, 275, 276, 276, 277, 278, 278, 280, 281, 281, 282, 283, 283, 284, 285, 285, 286, 287, 287, 288, 289, 290, 291, 291, 292, 293, 293, 295, 295, 296, 297, 297, 298, 299, 299, 300, 301, 301, 303, 303, 304, 305, 306, 307, 307, 308, 309, 310, 311, 312, 313, 313, 314, 315, 315, 316, 318, 319, 320, 320, 321, 322, 322, 323, 324, 325, 326, 327, 328, 328, 329, 330, 330, 331, 332, 332, 333, 334, 334, 335, 336, 336, 337, 338, 338, 339, 340, 340, 341, 342, 342, 343, 344, 344, 346, 347, 348, 349, 350, 350, 351, 352, 352, 353, 354, 355, 356, 356, 357, 358, 358, 360, 361, 361, 362, 363, 363, 364, 365, 365, 366, 367, 367, 368, 369, 369, 371, 371, 372, 373, 374, 375, 375, 376, 377, 377, 378, 379, 379, 380, 381, 382, 383, 384, 385, 385, 387, 387, 388, 389, 389, 390, 391, 391, 392, 393, 393, 394, 395, 395, 396, 397, 397, 398, 400, 400, 401, 402, 402, 403, 404, 405, 406, 407, 408, 408, 409, 410, 411, 412, 413, 414, 414, 415, 416, 416, 417, 418, 418, 419, 420, 420, 421, 422, 422, 424, 424, 425, 426, 426, 427, 428, 428, 429, 430, 431, 432, 433, 434, 434, 435, 436, 437, 438, 438, 441, 442, 443, 443, 444, 445, 446, 447, 447, 448, 449, 451, 452, 453, 453, 454, 455, 455, 456, 457, 457, 458, 459, 459, 460, 461, 461, 462, 463, 463, 464, 465, 465, 466, 467, 467, 468, 469, 469, 471, 472, 473, 473, 474, 475, 475, 476, 477, 477, 478, 479, 480, 481, 482, 482, 483, 484, 484, 485, 486, 487, 488, 488, 490, 490, 491, 492, 492, 493, 494, 494, 495, 496, 496, 497, 498, 499, 500, 501, 502, 502, 503, 504, 504, 505, 506, 507, 508, 508, 509, 510, 510, 511, 512, 513, 514, 514, 515, 516, 516, 517, 518, 518, 520, 521, 521, 522, 523, 524, 525, 525, 526, 527, 527, 528, 529, 529, 530, 533, 533, 534, 535, 535, 536, 537, 537, 538, 539, 539, 541, 541, 543, 544, 545, 545, 546, 547, 547, 548, 549, 549, 550, 551, 551, 552, 553, 554, 555, 556, 557, 558, 559, 560, 560, 561, 562, 564, 564, 565, 566, 566, 567, 568, 568, 569, 570, 571, 572, 572, 573, 574, 574, 575, 576, 576, 577, 578, 578, 579, 580, 580, 581, 583, 584, 584, 585, 586, 586, 587, 588, 588, 589, 590, 592, 592, 593, 594, 595, 596, 596, 597, 598, 598, 601, 601, 602, 603, 603, 604, 605, 605, 606, 607, 608, 609, 609, 610, 611, 611, 612, 613, 613, 615, 615, 616, 617, 617, 618, 619, 619, 620, 621, 621, 622, 623, 623, 625, 626, 627, 627, 628, 629, 630, 631, 631, 632, 633, 633, 634, 635, 636, 637, 637, 638, 639, 640, 640, 641, 643, 644, 644, 645, 646, 647, 648, 648, 649, 650, 650, 651, 652, 652, 653, 654, 654, 655, 656, 657, 658, 658, 660, 660, 661, 662, 662, 663, 664, 664, 666, 666, 667, 668, 668, 669, 670, 671, 672, 672, 673, 674, 674, 675, 676, 676, 677, 678, 678, 681, 681, 682, 683, 683, 684, 685, 685, 686, 687, 688, 689, 689, 690, 691, 691, 692, 693, 693, 694, 695, 695, 696, 697, 698, 699, 699, 700, 701, 701, 703, 703, 704, 705, 705, 706, 707, 707, 708, 709, 709, 710, 711, 711, 713, 713, 714, 715, 715, 716, 717, 717, 718, 719, 720, 721, 722, 722, 723, 724, 724, 725, 726, 726, 728, 728, 729, 730, 731, 732, 732, 734, 735, 736, 736, 737, 738, 738, 739, 740, 740, 741, 742, 742, 743, 744, 744, 746, 746, 747, 748, 748, 749, 750, 750, 751, 752, 752, 754, 754, 755, 756, 756, 757, 758, 758, 760, 761, 762, 764, 765, 767, 768, 769, 770, 771, 772, 773, 774, 775, 776, 777, 778, 779, 781, 782, 783, 784, 785, 786, 787, 788, 789, 790, 791, 792, 793, 794, 795, 796, 797];
weights = [18, 16, 5, 7, 17, 15, 3, 1, 15, 13, 10, 1, 15, 7, 1, 13, 14, 19, 11, 12, 15, 7, 17, 6, 9, 7, 15, 14, 18, 13, 13, 2, 1, 16, 6, 8, 11, 11, 3, 11, 18, 12, 8, 10, 12, 1, 6, 8, 16, 10, 3, 9, 10, 12, 1, 15, 1, 10, 13, 12, 8, 3, 19, 1, 19, 12, 9, 2, 17, 18, 16, 11, 19, 14, 5, 11, 3, 16, 16, 14, 2, 18, 10, 17, 5, 7, 16, 7, 13, 10, 2, 11, 2, 4, 14, 11, 7, 17, 1, 16, 9, 14, 16, 18, 11, 18, 15, 11, 4, 17, 5, 4, 4, 18, 19, 17, 3, 11, 5, 19, 9, 5, 10, 17, 16, 1, 10, 5, 5, 14, 18, 18, 2, 7, 4, 15, 16, 2, 6, 16, 15, 7, 5, 9, 1, 18, 2, 12, 16, 10, 12, 14, 16, 11, 14, 4, 11, 10, 18, 12, 3, 1, 4, 2, 10, 3, 3, 18, 4, 7, 11, 6, 2, 4, 11, 6, 4, 8, 11, 5, 12, 3, 14, 8, 13, 8, 3, 3, 5, 1, 18, 17, 19, 13, 12, 4, 2, 14, 2, 8, 17, 3, 8, 17, 5, 11, 10, 17, 6, 3, 16, 11, 17, 16, 18, 8, 14, 4, 3, 4, 3, 19, 13, 11, 5, 15, 16, 1, 11, 3, 7, 17, 7, 1, 12, 18, 1, 19, 9, 19, 8, 5, 17, 9, 1, 13, 13, 1, 12, 6, 7, 11, 18, 12, 4, 9, 5, 7, 14, 18, 12, 9, 1, 14, 14, 18, 11, 7, 3, 18, 12, 7, 5, 19, 16, 18, 5, 6, 5, 5, 15, 9, 5, 19, 12, 16, 16, 1, 17, 5, 15, 4, 14, 8, 2, 16, 15, 16, 2, 9, 4, 11, 10, 17, 2, 3, 16, 18, 10, 16, 18, 17, 15, 6, 4, 4, 11, 19, 16, 9, 3, 15, 14, 17, 1, 15, 14, 7, 18, 4, 14, 4, 6, 8, 4, 10, 12, 1, 1, 15, 3, 3, 2, 6, 17, 5, 8, 12, 9, 19, 2, 11, 6, 7, 15, 19, 16, 11, 8, 15, 9, 2, 4, 17, 15, 17, 8, 16, 4, 16, 16, 18, 9, 10, 1, 6, 13, 12, 10, 1, 18, 4, 11, 13, 10, 1, 2, 10, 17, 16, 1, 17, 11, 12, 7, 12, 7, 3, 15, 10, 15, 17, 1, 14, 3, 17, 5, 8, 16, 3, 1, 16, 4, 1, 9, 4, 12, 7, 1, 17, 14, 5, 16, 12, 5, 14, 8, 10, 14, 16, 18, 14, 14, 16, 3, 13, 18, 19, 12, 10, 1, 16, 19, 10, 8, 6, 3, 11, 7, 1, 9, 2, 8, 7, 13, 17, 4, 10, 1, 15, 3, 19, 15, 18, 4, 6, 4, 9, 1, 7, 12, 17, 11, 14, 16, 18, 19, 2, 11, 7, 9, 3, 13, 2, 10, 9, 5, 16, 18, 11, 11, 10, 8, 16, 8, 11, 4, 3, 8, 8, 16, 6, 11, 6, 17, 17, 16, 3, 4, 9, 12, 19, 4, 5, 5, 7, 18, 7, 7, 11, 17, 3, 12, 13, 11, 5, 13, 8, 3, 4, 17, 16, 11, 8, 2, 10, 4, 18, 4, 2, 9, 12, 3, 11, 17, 11, 17, 12, 15, 8, 10, 17, 15, 1, 15, 3, 7, 5, 14, 4, 8, 16, 7, 1, 12, 3, 14, 1, 14, 5, 15, 1, 15, 17, 1, 8, 15, 4, 18, 19, 6, 17, 1, 7, 5, 7, 13, 8, 13, 15, 5, 11, 1, 18, 14, 18, 1, 10, 1, 17, 14, 2, 5, 15, 10, 17, 9, 16, 18, 3, 14, 2, 19, 8, 18, 4, 2, 10, 4, 16, 14, 15, 4, 16, 15, 9, 14, 16, 11, 4, 16, 13, 10, 4, 13, 3, 7, 5, 9, 13, 5, 9, 14, 13, 12, 7, 7, 1, 18, 8, 16, 11, 15, 2, 16, 9, 1, 18, 3, 14, 10, 18, 7, 15, 12, 8, 13, 19, 7, 1, 6, 10, 1, 12, 6, 2, 3, 2, 14, 19, 18, 16, 12, 5, 17, 8, 7, 10, 3, 7, 18, 15, 13, 4, 7, 12, 17, 13, 11, 18, 13, 19, 4, 2, 11, 12, 1, 17, 8, 15, 16, 2, 1, 9, 1, 10, 1, 12, 1, 15, 9, 14, 15, 11, 17, 13, 16, 12, 12, 14, 18, 19, 13, 13, 1, 13, 4, 7, 14, 16, 1, 12, 2, 15, 7, 15, 5, 2, 7, 1, 4, 9, 4, 6, 19, 7, 9, 8, 9, 3, 19, 17, 10, 11, 9, 19, 11, 6, 8, 1, 2, 1, 16, 4, 7, 11, 6, 5, 12, 16, 12, 1, 1, 13, 11, 15, 1, 13, 18, 11, 12, 1, 13, 13, 6, 5, 6, 12, 2, 19, 12, 12, 8, 4, 11, 16, 18, 2, 14, 18, 7, 1, 19, 1, 1, 6, 15, 12, 13, 4, 7, 1, 3, 6, 9, 8, 5, 15, 12, 11, 17, 9, 19, 18, 2, 14, 4, 2, 3, 15, 2, 10, 12, 16, 18, 14, 3, 12, 5, 18, 18, 9, 15, 1, 10, 8, 5, 15, 13, 3, 12, 17, 12, 8, 5, 11, 2, 10, 12, 2, 18, 2, 16, 5, 9, 6, 18, 7, 10, 19, 10, 8, 17, 16, 16, 1, 17, 1, 12, 2, 12, 3, 2, 7, 17, 16, 16, 9, 13, 8, 4, 7, 14, 12, 10, 16, 10, 10, 7, 3, 19, 1, 4, 15, 8, 18, 19, 7, 1, 14, 9, 10, 1, 3, 8, 7, 10, 4, 8, 16, 19, 5, 12, 9, 18, 10, 12, 6, 12, 19, 16, 17, 17, 8, 9, 17, 8, 18, 1, 14, 1, 15, 12, 1, 12, 2, 17, 15, 10, 9, 6, 9, 19, 8, 12, 13, 10, 12, 19, 4, 17, 15, 10, 12, 14, 11, 17, 5, 10, 5, 14, 1, 13, 16, 1, 14, 4, 18, 9, 8, 1, 2, 9, 4, 12, 18, 16, 3, 12, 14, 7, 2, 15, 18, 14, 15, 18, 16, 5, 7, 17, 15, 3, 1, 15, 13, 10, 1, 15, 7, 1, 13, 14, 19, 11, 12, 15, 7, 17, 6, 9, 7, 15, 14, 18, 13, 13, 2, 1, 16, 6, 8, 11, 11, 3, 11, 18, 12, 8, 10, 12, 1, 6, 8, 16, 10, 3, 9, 10, 12, 1, 15, 1, 10, 13, 12, 8, 3, 19, 1, 19, 12, 9, 2, 17, 18, 16, 11, 19, 14, 5, 11, 3, 16, 16, 14, 2, 18, 10, 17, 5, 7, 16, 7, 13, 10, 2, 11, 2, 4, 14, 11, 7, 17, 1, 16, 9, 14, 16, 18, 11, 18, 15, 11, 4, 17, 5, 4, 4, 18, 19, 17, 3, 11, 5, 19, 9, 5, 10, 17, 16, 1, 10, 5, 5, 14, 18, 18, 2, 7, 4, 15, 16, 2, 6, 16, 15, 7, 5, 9, 1, 18, 2, 12, 16, 10, 12, 14, 16, 11, 14, 4, 11, 10, 18, 12, 3, 1, 4, 2, 10, 3, 3, 18, 4, 7, 11, 6, 2, 4, 11, 6, 4, 8, 11, 5, 12, 3, 14, 8, 13, 8, 3, 3, 5, 1, 18, 17, 19, 13, 12, 4, 2, 14, 2, 8, 17, 3, 8, 17, 5, 11, 10, 17, 6, 3, 16, 11, 17, 16, 18, 8, 14, 4, 3, 4, 3, 19, 13, 11, 5, 15, 16, 1, 11, 3, 7, 17, 7, 1, 12, 18, 1, 19, 9, 19, 8, 5, 17, 9, 1, 13, 13, 1, 12, 6, 7, 11, 18, 12, 4, 9, 5, 7, 14, 18, 12, 9, 1, 14, 14, 18, 11, 7, 3, 18, 12, 7, 5, 19, 16, 18, 5, 6, 5, 5, 15, 9, 5, 19, 12, 16, 16, 1, 17, 5, 15, 4, 14, 8, 2, 16, 15, 16, 2, 9, 4, 11, 10, 17, 2, 3, 16, 18, 10, 16, 18, 17, 15, 6, 4, 4, 11, 19, 16, 9, 3, 15, 14, 17, 1, 15, 14, 7, 18, 4, 14, 4, 6, 8, 4, 10, 12, 1, 1, 15, 3, 3, 2, 6, 17, 5, 8, 12, 9, 19, 2, 11, 6, 7, 15, 19, 16, 11, 8, 15, 9, 2, 4, 17, 15, 17, 8, 16, 4, 16, 16, 18, 9, 10, 1, 6, 13, 12, 10, 1, 18, 4, 11, 13, 10, 1, 2, 10, 17, 16, 1, 17, 11, 12, 7, 12, 7, 3, 15, 10, 15, 17, 1, 14, 3, 17, 5, 8, 16, 3, 1, 16, 4, 1, 9, 4, 12, 7, 1, 17, 14, 5, 16, 12, 5, 14, 8, 10, 14, 16, 18, 14, 14, 16, 3, 13, 18, 19, 12, 10, 1, 16, 19, 10, 8, 6, 3, 11, 7, 1, 9, 2, 8, 7, 13, 17, 4, 10, 1, 15, 3, 19, 15, 18, 4, 6, 4, 9, 1, 7, 12, 17, 11, 14, 16, 18, 19, 2, 11, 7, 9, 3, 13, 2, 10, 9, 5, 16, 18, 11, 11, 10, 8, 16, 8, 11, 4, 3, 8, 8, 16, 6, 11, 6, 17, 17, 16, 3, 4, 9, 12, 19, 4, 5, 5, 7, 18, 7, 7, 11, 17, 3, 12, 13, 11, 5, 13, 8, 3, 4, 17, 16, 11, 8, 2, 10, 4, 18, 4, 2, 9, 12, 3, 11, 17, 11, 17, 12, 15, 8, 10, 17, 15, 1, 15, 3, 7, 5, 14, 4, 8, 16, 7, 1, 12, 3, 14, 1, 14, 5, 15, 1, 15, 17, 1, 8, 15, 4, 18, 19, 6, 17, 1, 7, 5, 7, 13, 8, 13, 15, 5, 11, 1, 18, 14, 18, 1, 10, 1, 17, 14, 2, 5, 15, 10, 17, 9, 16, 18, 3, 14, 2, 19, 8, 18, 4, 2, 10, 4, 16, 14, 15, 4, 16, 15, 9, 14, 16, 11, 4, 16, 13, 10, 4, 13, 3, 7, 5, 9, 13, 5, 9, 14, 13, 12, 7, 7, 1, 18, 8, 16, 11, 15, 2, 16, 9, 1, 18, 3, 14, 10, 18, 7, 15, 12, 8, 13, 19, 7, 1, 6, 10, 1, 12, 6, 2, 3, 2, 14, 19, 18, 16, 12, 5, 17, 8, 7, 10, 3, 7, 18, 15, 13, 4, 7, 12, 17, 13, 11, 18, 13, 19, 4, 2, 11, 12, 1, 17, 8, 15, 16, 2, 1, 9, 1, 10, 1, 12, 1, 15, 9, 14, 15, 11, 17, 13, 16, 12, 12, 14, 18, 19, 13, 13, 1, 13, 4, 7, 14, 16, 1, 12, 2, 15, 7, 15, 5, 2, 7, 1, 4, 9, 4, 6, 19, 7, 9, 8, 9, 3, 19, 17, 10, 11, 9, 19, 11, 6, 8, 1, 2, 1, 16, 4, 7, 11, 6, 5, 12, 16, 12, 1, 1, 13, 11, 15, 1, 13, 18, 11, 12, 1, 13, 13, 6, 5, 6, 12, 2, 19, 12, 12, 8, 4, 11, 16, 18, 2, 14, 18, 7, 1, 19, 1, 1, 6, 15, 12, 13, 4, 7, 1, 3, 6, 9, 8, 5, 15, 12, 11, 17, 9, 19, 18, 2, 14, 4, 2, 3, 15, 2, 10, 12, 16, 18, 14, 3, 12, 5, 18, 18, 9, 15, 1, 10, 8, 5, 15, 13, 3, 12, 17, 12, 8, 5, 11, 2, 10, 12, 2, 18, 2, 16, 5, 9, 6, 18, 7, 10, 19, 10, 8, 17, 16, 16, 1, 17, 1, 12, 2, 12, 3, 2, 7, 17, 16, 16, 9, 13, 8, 4, 7, 14, 12, 10, 16, 10, 10, 7, 3, 19, 1, 4, 15, 8, 18, 19, 7, 1, 14, 9, 10, 1, 3, 8, 7, 10, 4, 8, 16, 19, 5, 12, 9, 18, 10, 12, 6, 12, 19, 16, 17, 17, 8, 9, 17, 8, 18, 1, 14, 1, 15, 12, 1, 12, 2, 17, 15, 10, 9, 6, 9, 19, 8, 12, 13, 10, 12, 19, 4, 17, 15, 10, 12, 14, 11, 17, 5, 10, 5, 14, 1, 13, 16, 1, 14, 4, 18, 9, 8, 1, 2, 9, 4, 12, 18, 16, 3, 12, 14, 7, 2, 15, 18, 14, 15];
start = 1;
end= 798;
tasks = 5;
task = array2d(1..tasks, 1..nodes, [0, 0, 0, 0, 0, 0, 0, 0, 0, 0, 0, 0, 0, 0, 0, 0, 0, 0, 0, 0, 0, 0, 0, 0, 0, 0, 0, 0, 0, 0, 0, 0, 0, 0, 0, 0, 0, 0, 0, 0, 0, 1, 0, 0, 0, 0, 0, 0, 0, 0, 0, 0, 0, 0, 0, 0, 0, 0, 0, 0, 0, 0, 0, 0, 0, 0, 0, 0, 0, 0, 0, 0, 0, 0, 0, 0, 0, 0, 0, 0, 0, 0, 0, 0, 0, 0, 0, 0, 0, 0, 0, 0, 0, 0, 0, 0, 0, 0, 0, 0, 0, 0, 0, 0, 0, 0, 0, 0, 0, 0, 0, 0, 0, 0, 0, 0, 0, 0, 0, 0, 0, 0, 0, 0, 0, 0, 0, 0, 0, 0, 0, 0, 0, 0, 0, 0, 0, 0, 0, 0, 0, 0, 0, 0, 0, 0, 0, 0, 0, 0, 0, 0, 0, 0, 0, 0, 0, 0, 0, 0, 0, 0, 0, 0, 0, 0, 0, 0, 0, 0, 0, 0, 0, 0, 0, 0, 0, 0, 0, 0, 0, 0, 0, 0, 0, 0, 0, 0, 0, 0, 0, 0, 0, 0, 0, 0, 0, 0, 0, 0, 0, 0, 0, 0, 0, 0, 0, 0, 0, 0, 0, 0, 0, 0, 0, 0, 0, 0, 0, 0, 0, 0, 0, 0, 0, 0, 0, 0, 0, 0, 0, 0, 0, 0, 0, 0, 0, 0, 0, 0, 0, 0, 0, 0, 0, 0, 0, 0, 0, 0, 0, 0, 0, 0, 0, 0, 0, 0, 0, 0, 0, 0, 0, 0, 0, 0, 0, 0, 0, 0, 0, 0, 0, 0, 0, 0, 0, 0, 0, 0, 0, 0, 0, 0, 0, 0, 0, 0, 0, 0, 0, 0, 0, 0, 0, 0, 0, 0, 0, 0, 0, 0, 0, 0, 0, 0, 0, 0, 0, 0, 0, 0, 0, 0, 0, 0, 0, 0, 0, 0, 0, 0, 0, 0, 0, 0, 0, 0, 0, 0, 0, 0, 0, 0, 0, 0, 0, 0, 0, 0, 0, 0, 0, 0, 0, 0, 0, 0, 0, 0, 0, 0, 0, 0, 0, 0, 0, 0, 0, 0, 0, 0, 0, 0, 0, 0, 0, 0, 0, 0, 0, 0, 0, 0, 0, 0, 0, 0, 0, 0, 0, 0, 0, 0, 0, 0, 0, 0, 0, 0, 0, 0, 0, 0, 0, 0, 0, 0, 0, 0, 0, 0, 0, 0, 0, 0, 0, 0, 0, 0, 0, 0, 0, 0, 0, 0, 0, 0, 0, 0, 0, 0, 0, 0, 0, 0, 0, 0, 0, 0, 0, 0, 0, 0, 0, 0, 0, 0, 0, 0, 0, 0, 0, 0, 0, 0, 0, 0, 0, 0, 0, 0, 0, 0, 0, 0, 0, 0, 0, 0, 0, 0, 0, 0, 0, 0, 0, 0, 0, 0, 0, 0, 0, 0, 0, 0, 0, 0, 0, 0, 0, 0, 0, 0, 0, 0, 0, 0, 0, 0, 0, 0, 0, 0, 0, 0, 0, 0, 0, 0, 0, 0, 0, 0, 0, 0, 0, 0, 0, 0, 0, 0, 0, 0, 0, 0, 0, 0, 0, 0, 0, 0, 0, 0, 0, 0, 0, 0, 0, 0, 0, 0, 0, 0, 0, 0, 0, 0, 0, 0, 0, 0, 0, 0, 0, 0, 0, 0, 0, 0, 0, 0, 0, 0, 0, 0, 0, 0, 0, 0, 0, 0, 0, 0, 0, 0, 0, 0, 0, 0, 0, 0, 0, 0, 0, 0, 0, 0, 0, 0, 0, 0, 0, 0, 0, 0, 0, 0, 0, 0, 0, 0, 0, 0, 0, 0, 0, 0, 0, 0, 0, 0, 0, 0, 0, 0, 0, 0, 0, 0, 0, 0, 0, 0, 0, 0, 0, 0, 0, 0, 0, 0, 0, 0, 0, 0, 0, 0, 0, 0, 0, 0, 0, 0, 0, 0, 0, 0, 0, 0, 0, 0, 0, 0, 0, 0, 0, 0, 0, 0, 0, 0, 0, 0, 0, 0, 0, 0, 0, 0, 0, 0, 0, 0, 0, 0, 0, 0, 0, 0, 0, 0, 0, 0, 0, 0, 0, 0, 0, 0, 0, 0, 0, 0, 0, 0, 0, 0, 0, 0, 0, 0, 0, 0, 0, 0, 0, 0, 0, 0, 0, 0, 0, 0, 0, 0, 0, 0, 0, 0, 0, 0, 0, 0, 0, 0, 0, 0, 0, 0, 0, 0, 0, 0, 0, 0, 0, 0, 0, 0, 0, 0, 0, 0, 0, 0, 0, 0, 0, 0, 0, 0, 0, 0, 0, 0, 0, 0, 0, 0, 0, 0, 0, 0, 0, 0, 0, 0, 1, 0, 0, 0, 0, 0, 0, 0, 0, 0, 0, 0, 0, 0, 0, 0, 0, 0, 0, 0, 0, 0, 0, 0, 0, 0, 0, 0, 0, 0, 0, 0, 0, 0, 0, 0, 0, 0, 0, 0, 0, 0, 0, 0, 0, 0, 0, 0, 0, 0, 0, 0, 0, 0, 0, 0, 0, 0, 0, 0, 0, 0, 0, 0, 0, 0, 0, 0, 0, 0, 0, 0, 0, 0, 0, 0, 0, 0, 0, 0, 0, 0, 0, 1, 0, 0, 0, 0, 0, 0, 0, 0, 0, 0, 0, 0, 0, 0, 0, 0, 0, 0, 0, 0, 0, 0, 0, 0, 0, 0, 0, 0, 0, 0, 0, 0, 0, 0, 0, 0, 0, 0, 0, 0, 0, 0, 0, 0, 0, 0, 0, 0, 0, 0, 0, 0, 0, 0, 0, 0, 0, 0, 0, 0, 0, 0, 0, 0, 0, 0, 0, 0, 0, 0, 0, 0, 0, 0, 0, 0, 0, 0, 0, 0, 0, 0, 0, 0, 0, 0, 0, 0, 0, 0, 0, 0, 0, 0, 0, 0, 0, 0, 0, 0, 0, 0, 0, 0, 0, 0, 0, 0, 0, 0, 0, 0, 0, 0, 0, 0, 0, 0, 0, 0, 0, 0, 0, 0, 0, 0, 0, 0, 0, 0, 0, 0, 0, 0, 0, 0, 0, 0, 0, 0, 0, 0, 0, 0, 0, 0, 0, 0, 0, 0, 0, 0, 0, 0, 0, 0, 0, 0, 0, 0, 0, 0, 0, 0, 0, 0, 0, 0, 0, 0, 0, 0, 0, 0, 0, 0, 0, 0, 0, 0, 0, 0, 0, 0, 0, 0, 0, 0, 0, 0, 0, 0, 0, 0, 0, 0, 0, 0, 0, 0, 0, 0, 0, 0, 0, 0, 0, 0, 0, 0, 0, 0, 0, 0, 0, 0, 0, 0, 0, 0, 0, 0, 0, 0, 0, 0, 0, 0, 0, 0, 0, 0, 0, 0, 0, 0, 0, 0, 0, 0, 0, 0, 0, 0, 0, 0, 0, 0, 0, 0, 0, 0, 0, 0, 0, 0, 0, 0, 0, 0, 0, 0, 0, 0, 0, 0, 0, 0, 0, 0, 0, 0, 0, 0, 0, 0, 0, 0, 0, 0, 0, 0, 0, 0, 0, 0, 0, 0, 0, 0, 0, 0, 0, 0, 0, 0, 0, 0, 0, 0, 0, 0, 0, 0, 0, 0, 0, 0, 0, 0, 0, 0, 0, 0, 0, 0, 0, 0, 0, 0, 0, 0, 0, 0, 0, 0, 0, 0, 0, 0, 0, 0, 0, 0, 0, 0, 0, 0, 0, 0, 0, 0, 0, 0, 0, 0, 0, 0, 0, 0, 0, 0, 0, 0, 0, 0, 0, 0, 0, 0, 0, 0, 0, 0, 0, 0, 0, 0, 0, 0, 0, 0, 0, 0, 0, 0, 0, 0, 0, 0, 0, 0, 0, 0, 0, 0, 0, 0, 0, 0, 0, 0, 0, 0, 0, 0, 0, 0, 0, 0, 0, 0, 0, 0, 0, 0, 0, 0, 0, 0, 0, 0, 0, 0, 0, 0, 0, 0, 0, 0, 0, 0, 0, 0, 0, 0, 0, 0, 0, 0, 0, 0, 0, 0, 0, 0, 0, 0, 0, 0, 0, 0, 0, 0, 0, 0, 0, 0, 0, 0, 0, 0, 0, 0, 0, 0, 0, 0, 0, 0, 0, 0, 0, 0, 0, 0, 0, 0, 0, 0, 0, 0, 0, 0, 0, 0, 0, 0, 0, 0, 0, 0, 0, 0, 0, 0, 0, 0, 0, 0, 0, 0, 0, 0, 0, 0, 0, 0, 0, 0, 0, 0, 0, 0, 0, 0, 0, 0, 0, 0, 0, 0, 0, 0, 0, 0, 0, 0, 0, 0, 0, 0, 0, 0, 0, 0, 0, 0, 0, 0, 0, 0, 0, 0, 0, 0, 0, 0, 0, 0, 0, 0, 0, 0, 0, 0, 0, 0, 0, 0, 0, 0, 0, 0, 0, 0, 0, 0, 0, 0, 0, 0, 0, 0, 0, 0, 0, 0, 0, 0, 0, 0, 0, 0, 0, 0, 0, 0, 0, 0, 0, 0, 0, 0, 0, 0, 0, 0, 0, 0, 0, 0, 0, 0, 0, 0, 0, 0, 0, 0, 0, 0, 0, 0, 0, 0, 0, 0, 0, 0, 0, 0, 0, 0, 0, 0, 0, 0, 0, 0, 0, 0, 0, 0, 0, 0, 0, 0, 0, 0, 0, 0, 0, 0, 0, 0, 0, 0, 0, 0, 0, 0, 0, 0, 0, 0, 0, 0, 0, 0, 0, 0, 0, 0, 0, 0, 0, 0, 0, 0, 0, 0, 0, 0, 0, 0, 0, 0, 0, 0, 0, 1, 0, 0, 0, 0, 0, 0, 0, 0, 0, 0, 0, 0, 0, 0, 0, 0, 0, 0, 0, 0, 0, 0, 0, 0, 0, 0, 0, 0, 0, 0, 0, 0, 0, 0, 0, 0, 0, 0, 0, 0, 0, 0, 0, 0, 0, 0, 0, 0, 0, 0, 0, 0, 0, 0, 0, 0, 0, 0, 0, 0, 0, 0, 0, 0, 0, 0, 0, 0, 0, 0, 0, 0, 0, 0, 0, 0, 0, 0, 0, 0, 0, 0, 0, 0, 0, 0, 0, 0, 0, 0, 0, 0, 0, 0, 0, 0, 0, 0, 0, 0, 0, 0, 0, 0, 0, 0, 0, 0, 0, 0, 0, 0, 0, 0, 0, 0, 0, 0, 0, 0, 0, 0, 0, 0, 0, 0, 0, 0, 0, 0, 1, 0, 0, 0, 0, 0, 0, 0, 0, 0, 0, 0, 0, 0, 0, 0, 0, 0, 0, 0, 0, 0, 0, 0, 0, 0, 0, 0, 0, 0, 0, 0, 0, 0, 0, 0, 0, 0, 0, 0, 0, 0, 0, 0, 0, 0, 0, 0, 0, 0, 0, 0, 0, 0, 0, 0, 0, 0, 0, 0, 0, 0, 0, 0, 0, 0, 0, 0, 0, 0, 0, 0, 0, 0, 0, 0, 0, 0, 0, 0, 0, 0, 0, 0, 0, 0, 0, 0, 0, 0, 0, 0, 0, 0, 0, 0, 0, 0, 0, 0, 0, 0, 0, 0, 0, 0, 0, 0, 0, 0, 0, 0, 0, 0, 0, 0, 0, 0, 0, 0, 0, 0, 0, 0, 0, 0, 0, 0, 0, 0, 0, 0, 0, 0, 0, 0, 0, 0, 0, 0, 0, 0, 0, 0, 0, 0, 0, 0, 0, 0, 0, 0, 0, 0, 0, 0, 0, 0, 0, 0, 0, 0, 0, 0, 0, 0, 0, 0, 0, 0, 0, 0, 0, 0, 0, 0, 0, 0, 0, 0, 0, 0, 0, 0, 0, 0, 0, 0, 0, 0, 0, 0, 0, 0, 0, 0, 0, 0, 0, 0, 0, 0, 0, 0, 0, 0, 0, 0, 0, 0, 0, 0, 0, 0, 0, 0, 0, 0, 0, 0, 0, 0, 0, 0, 0, 0, 0, 0, 0, 0, 0, 0, 0, 0, 0, 0, 0, 0, 0, 0, 0, 0, 0, 0, 0, 0, 0, 0, 0, 0, 0, 0, 0, 0, 0, 0, 0, 0, 0, 0, 0, 0, 0, 0, 0, 0, 0, 0, 0, 0, 0, 0, 0, 0, 0, 0, 0, 0, 0, 0, 0, 0, 0, 0, 0, 0, 0, 0, 0, 0, 0, 0, 0, 0, 0, 0, 0, 0, 0, 0, 0, 0, 0, 0, 0, 0, 0, 0, 0, 0, 0, 0, 0, 0, 0, 0, 0, 0, 0, 0, 0, 0, 0, 0, 0, 0, 0, 0, 0, 0, 0, 0, 0, 0, 0, 0, 0, 0, 0, 0, 0, 0, 0, 0, 0, 0, 0, 0, 0, 0, 0, 0, 0, 0, 0, 0, 0, 0, 0, 0, 0, 0, 0, 0, 0, 0, 0, 0, 0, 0, 0, 0, 0, 0, 0, 0, 0, 0, 0, 0, 0, 0, 0, 0, 0, 0, 0, 0, 0, 0, 0, 0, 0, 0, 0, 0, 0, 0, 0, 0, 0, 0, 0, 0, 0, 0, 0, 0, 0, 0, 0, 1, 0, 0, 0, 0, 0, 0, 0, 0, 0, 0, 0, 0, 0, 0, 0, 0, 0, 0, 0, 0, 0, 0, 0, 0, 0, 0, 0, 0, 0, 0, 0, 0, 0, 0, 0, 0, 0, 0, 0, 0, 0, 0, 0, 0, 0, 0, 0, 0, 0, 0, 0, 0, 0, 0, 0, 0, 0, 0, 0, 0, 0, 0, 0, 0, 0, 0, 0, 0, 0, 0, 0, 0, 0, 0, 0, 0, 0, 0, 0, 0, 0, 0, 0, 0, 0, 0, 0, 0, 0, 0, 0, 0, 0, 0, 0, 0, 0, 0, 0, 0, 0, 0, 0, 0, 0, 0, 0, 0, 0, 0, 0, 0, 0, 0, 0, 0, 0, 0, 0, 0, 0, 0, 0, 0, 0, 0, 0, 0, 0, 0, 0, 0, 0, 0, 0, 0, 0, 0, 0, 0, 0, 0, 0, 0, 0, 0, 0, 0, 0, 0, 0, 0, 0, 0, 0, 0, 0, 0, 0, 0, 0, 0, 0, 0, 0, 0, 0, 0, 0, 0, 0, 0, 0, 0, 0, 0, 0, 0, 0, 0, 0, 0, 0, 0, 0, 0, 0, 0, 0, 0, 0, 0, 0, 0, 0, 0, 0, 0, 0, 0, 0, 0, 0, 0, 0, 0, 0, 0, 0, 0, 0, 0, 0, 0, 0, 0, 0, 0, 0, 0, 0, 0, 0, 0, 0, 0, 0, 0, 0, 0, 0, 0, 0, 0, 0, 0, 0, 0, 0, 0, 0, 0, 0, 0, 0, 0, 0, 0, 0, 0, 0, 0, 0, 0, 0, 0, 0, 0, 0, 0, 0, 0, 0, 0, 0, 0, 0, 0, 0, 0, 0, 0, 0, 0, 0, 0, 0, 0, 0, 0, 0, 0, 0, 0, 0, 0, 0, 0, 0, 0, 0, 0, 0, 0, 0, 0, 0, 0, 0, 0, 0, 0, 0, 0, 0, 0, 0, 0, 0, 0, 0, 0, 0, 0, 0, 0, 0, 0, 0, 0, 0, 0, 0, 0, 0, 0, 0, 0, 0, 0, 0, 0, 0, 0, 0, 0, 0, 0, 0, 0, 0, 0, 0, 0, 0, 0, 0, 0, 0, 0, 0, 0, 0, 0, 0, 0, 0, 0, 0, 0, 0, 0, 0, 0, 0, 0, 0, 0, 0, 0, 0, 0, 0, 0, 0, 0, 0, 0, 0, 0, 0, 0, 0, 0, 0, 0, 0, 0, 0, 0, 0, 0, 0, 0, 0, 0, 0, 0, 0, 0, 0, 0, 0, 0, 0, 0, 0, 0, 0, 0, 0, 0, 0, 0, 0, 0, 0, 0, 0, 0, 0, 0, 0, 0, 0, 0, 0, 0, 0, 0, 0, 0, 0, 0, 0, 0, 0, 0, 0, 0, 0, 0, 0, 0, 0, 0, 0, 0, 0, 0, 0, 0, 0, 0, 0, 0, 0, 0, 0, 0, 0, 0, 0, 0, 0, 0, 0, 0, 0, 0, 0, 0, 0, 0, 0, 0, 0, 0, 0, 0, 0, 0, 0, 0, 0, 0, 0, 0, 0, 0, 0, 0, 0, 0, 0, 0, 0, 0, 0, 0, 0, 0, 0, 0, 0, 0, 0, 0, 0, 0, 0, 0, 0, 0, 0, 0, 0, 0, 0, 0, 0, 0, 0, 0, 0, 0, 0, 0, 0, 0, 0, 0, 0, 0, 0, 0, 0, 0, 0, 0, 0, 0, 0, 0, 0, 0, 0, 0, 0, 1, 0, 0, 0, 0, 0, 0, 0, 0, 0, 0, 0, 0, 0, 0, 0, 0, 0, 0, 0, 0, 0, 0, 0, 0, 0, 0, 0, 0, 0, 0, 0, 0, 0, 0, 0, 0, 0, 0, 0, 0, 0, 0, 0, 0, 0, 0, 0, 0, 0, 0, 0, 0, 0, 0, 0, 0, 0, 0, 0, 0, 0, 0, 0, 0, 0, 0, 0, 0, 0, 0, 0, 0, 0, 0, 0, 0, 0, 0, 0, 0, 0, 0, 0, 0, 0, 0, 0, 0, 0, 0, 0, 0, 0, 0, 0, 0, 0, 0, 0, 0, 0, 0, 0, 0, 0, 0, 0, 0, 0, 0, 0, 0, 0, 0, 0, 0, 0, 0, 0, 0, 0, 0, 0, 0, 0, 0, 0, 0, 0, 0, 0, 0, 0, 0, 0, 0, 0, 0, 0, 0, 0, 0, 0, 0, 0, 0, 0, 0, 0, 0, 0, 0, 0, 0, 0, 0, 0, 0, 0, 0, 0, 0, 0, 0, 0, 0, 0, 0, 0, 0, 0, 0, 0, 0, 0, 0, 0, 0, 0, 0, 0, 0, 0, 0, 0, 0, 0, 0, 0, 0, 0, 0, 0, 0, 0, 0, 0, 0, 0, 0, 0, 0, 0, 0, 0, 0, 0, 0, 0, 0, 0, 0, 0, 0, 0, 0, 0, 0, 0, 0, 0, 0, 0, 0, 0, 0, 0, 0, 0, 0, 0, 0, 0, 0, 0, 0, 0, 0, 0, 0, 0, 0, 0, 0, 0, 0, 0, 0, 0, 0, 0, 0, 0, 0, 0, 0, 1, 0, 0, 0, 0, 0, 0, 0, 0, 0, 0, 0, 0, 0, 0, 0, 0, 0, 0, 0, 0, 0, 0, 0, 0, 0, 0, 0, 0, 0, 0, 0, 0, 0, 0, 0, 0, 0, 0, 0, 0, 0, 0, 0, 0, 0, 0, 0, 0, 0, 0, 0, 0, 0, 0, 0, 0, 0, 0, 0, 0, 0, 0, 0, 0, 0, 0, 0, 0, 0, 0, 0, 0, 0, 0, 0, 0, 0, 0, 0, 0, 0, 0, 0, 0, 0, 0, 0, 0, 0, 0, 0, 0, 0, 0, 0, 0, 0, 0, 0, 0, 0, 0, 0, 0, 0, 0, 0, 0, 0, 0, 0, 0, 0, 0, 0, 0, 0, 0, 0, 0, 0, 0, 0, 0, 0, 0, 0, 0, 0, 0, 0, 0, 0, 0, 0, 0, 0, 0, 0, 0, 0, 0, 0, 0, 0, 0, 0, 0, 0, 0, 0, 0, 0, 0, 0, 0, 0, 0, 0, 0, 0, 0, 0, 0, 0, 0, 0, 0, 0, 0, 0, 0, 0, 0, 0, 0, 0, 0, 0, 0, 0, 0, 0, 0, 0, 0, 0, 0, 0, 0, 0, 0, 0, 0, 0, 0, 0, 0, 0, 0, 0, 0, 0, 0, 0, 0, 0, 0, 0, 0, 0, 0, 0, 0, 0, 0, 0, 0, 0, 0, 0, 0, 0, 0, 0, 0, 0, 0, 0, 0, 0, 0, 0, 0, 0, 0, 0, 0, 0, 0, 0, 0, 0, 0, 0, 0, 0, 0, 0, 0, 0, 0, 0, 0, 0, 0, 0, 0, 0, 0, 0, 0, 0, 0, 0, 0, 0, 0, 0, 0, 0, 0, 0, 0, 0, 0, 0, 0, 0, 0, 0, 0, 0, 0, 0, 0, 0, 0, 0, 0, 0, 0, 0, 0, 0, 0, 0, 0, 0, 0, 0, 0, 0, 0, 0, 0, 0, 0, 0, 0, 0, 0, 0, 0, 0, 0, 0, 0, 0, 0, 0, 0, 0, 0, 0, 0, 0, 0, 0, 0, 0, 0, 0, 0, 0, 0, 0, 0, 0, 0, 0, 0, 0, 0, 0, 0, 0, 0, 0, 0, 0, 0, 0, 0, 0, 0, 0, 0, 0, 0, 0, 0, 0, 0, 0, 0, 0, 0, 0, 0, 0, 0, 0, 0, 0, 0, 0, 0, 0, 0, 0, 0, 0, 0, 0, 0, 0, 0, 0, 0, 0, 0, 0, 0, 0, 0, 0, 0, 0, 0, 0, 0, 0, 0, 0, 0, 0, 0, 0, 0, 0, 0, 0, 0, 0, 0, 0, 0, 0, 0, 0, 0, 0, 0, 0, 0, 0, 0, 0, 0, 0, 0, 0, 0, 0, 0, 0, 0, 0, 0, 0, 0, 0, 0, 0, 0, 0, 0, 0, 0, 0, 0, 0, 0, 0, 0, 0, 0, 0, 0, 0, 0, 0, 0, 0, 0, 0, 0, 0, 0, 0, 0, 0, 0, 0, 0, 0, 0, 0, 0, 0, 0, 0, 0, 0, 0, 0, 0, 0, 0, 0, 0, 0, 0, 0, 0, 0, 0, 0, 0, 0, 0, 0, 0, 0, 0, 0, 0, 0, 0, 0, 0, 0, 0, 0, 0, 0, 0, 0, 0, 0, 0, 0, 0, 0, 0, 0, 0, 0, 0, 0, 0, 0, 0, 0, 0, 0, 0, 0, 0, 0, 0, 0, 0, 0, 0, 0, 0, 0, 0, 0, 0, 0, 0, 0, 0, 0, 0, 0, 0, 0, 0, 0, 0, 0, 0, 0, 0, 0, 0, 0, 0, 0, 0, 0, 0, 0, 0, 0, 0, 0, 0, 0, 0, 0, 0, 0, 0, 0, 0, 0, 0, 0, 0, 0, 0, 0, 0, 0, 0, 0, 0, 0, 0, 0, 0, 0, 0, 0, 0, 0, 0, 0, 0, 0, 0, 0, 0, 0, 0, 0, 0, 0, 0, 0, 0, 0, 0, 0, 0, 0, 0, 0, 0, 0, 0, 0, 0, 0, 0, 0, 0, 0, 0, 0, 0, 0, 0, 0, 0, 0, 0, 0, 0, 0, 0, 0, 0, 0, 0, 0, 0, 0, 0, 0, 0, 0, 0, 0, 0, 0, 0, 0, 0, 0, 0, 0, 0, 0, 0, 0, 0, 0, 0, 0, 0, 0, 0, 0, 0, 0, 0, 0, 0, 0, 0, 0, 0, 0, 0, 0, 0, 0, 0, 0, 0, 0, 0, 0, 0, 0, 0, 0, 0, 0, 0, 0, 0, 0, 0, 0, 0, 0, 0, 0, 0, 0, 0, 0, 0, 0, 0, 0, 0, 0, 0, 0, 0, 0, 0, 0, 0, 0, 0, 0, 0, 0, 0, 0, 0, 0, 0, 0, 0, 0, 0, 0, 0, 0, 0, 0, 0, 0, 0, 0, 0, 0, 0, 0, 0, 0, 0, 0, 0, 0, 0, 0, 0, 0, 0, 0, 0, 0, 0, 0, 0, 0, 0, 0, 0, 1, 0, 0, 0, 0, 0, 0, 0, 0, 0, 0, 0, 0, 0, 0, 0, 0, 0, 0, 0, 0, 0, 0, 0, 0, 0, 0, 0, 0, 0, 0, 0, 0, 0, 0, 0, 0, 0, 0, 0, 0, 0, 0, 0, 0, 0, 0, 0, 0, 0, 0, 0, 0, 0, 0, 0, 0, 0, 0, 0, 0, 0, 0, 0, 0, 0, 0, 0, 0, 0, 0, 0, 0, 0, 0, 0, 0, 0, 0, 0, 0, 0, 0, 0, 0, 0, 0, 0, 1, 0, 0, 0, 0, 0, 0, 0, 0, 0, 0, 0, 0, 0, 0, 0, 0, 0, 0, 0, 0, 0, 0, 0, 0, 0, 0, 0, 0, 0, 0, 0, 0, 0, 0, 0, 0, 0, 0, 0, 0, 0, 0, 0, 0, 0, 0, 0, 0, 0, 0, 0, 0, 0, 0, 0, 0, 0, 0, 0, 0, 0, 0, 0, 0, 0, 0, 0, 0, 0, 0, 0, 0, 0, 0, 0, 0, 0, 0, 0, 0, 0, 0, 0, 0, 0, 0, 0, 0, 0, 0, 0, 0, 0, 0, 0, 0, 0, 0, 0, 0, 0, 0, 0, 0, 0, 0, 0, 0, 0, 0, 0, 0, 0, 0, 0, 0, 0, 0, 0, 0, 0, 0, 0, 0, 0, 0, 0, 0, 0, 0, 0, 0, 0, 0, 0, 0, 0, 0, 0, 0, 0, 0, 0, 0, 0, 0, 0, 0, 0, 0, 0, 0, 0, 0, 0, 0, 0, 0, 0, 0, 0, 0, 0, 0, 0, 0, 0, 0, 0, 0, 0, 0, 0, 0, 0, 0, 0, 0, 0, 0, 0, 0, 0, 0, 0, 0, 0, 0, 0, 0, 0, 0, 0, 0, 0, 0, 0, 0, 0, 0, 0, 0, 0, 0, 0, 0, 0, 0, 0, 0, 0, 0, 0, 0, 0, 0, 0, 0, 0, 0, 0, 0, 0, 0, 0, 0, 0, 0, 0, 0, 0, 0, 0, 0, 0, 0, 0, 0, 0, 0, 0, 0, 0, 0, 0, 0, 0, 0]);
